c
c
c
c
c
15 120
0 0 -1
0 1 17
0 2 22
0 3 4
0 4 20
0 5 24
0 6 29
0 7 21
0 8 25
0 9 24
0 10 10
0 11 9
0 12 22
0 13 13
0 14 12
1 1 -1
1 2 5
1 3 14
1 4 26
1 5 30
1 6 16
1 7 18
1 8 9
1 9 12
1 10 9
1 11 4
1 12 30
1 13 16
1 14 10
2 2 -1
2 3 9
2 4 5
2 5 4
2 6 22
2 7 22
2 8 7
2 9 25
2 10 28
2 11 13
2 12 26
2 13 2
2 14 13
3 3 -1
3 4 3
3 5 14
3 6 22
3 7 15
3 8 15
3 9 8
3 10 23
3 11 15
3 12 14
3 13 12
3 14 4
4 4 -1
4 5 27
4 6 10
4 7 27
4 8 27
4 9 30
4 10 24
4 11 19
4 12 28
4 13 25
4 14 8
5 5 -1
5 6 19
5 7 16
5 8 15
5 9 5
5 10 10
5 11 21
5 12 24
5 13 4
5 14 15
6 6 -1
6 7 3
6 8 18
6 9 7
6 10 10
6 11 23
6 12 19
6 13 25
6 14 14
7 7 -1
7 8 13
7 9 15
7 10 28
7 11 29
7 12 17
7 13 12
7 14 1
8 8 -1
8 9 19
8 10 9
8 11 29
8 12 29
8 13 6
8 14 20
9 9 -1
9 10 4
9 11 17
9 12 30
9 13 17
9 14 7
10 10 -1
10 11 23
10 12 1
10 13 5
10 14 26
11 11 -1
11 12 12
11 13 30
11 14 7
12 12 -1
12 13 17
12 14 4
13 13 -1
13 14 6
14 14 -1
